(set-logic QF_LIA)
(declare-fun x0 () Int)
(declare-fun x1 () Int)
(declare-fun x2 () Int)
(declare-fun x3 () Int)
(declare-fun x4 () Int)
(declare-fun x5 () Int)
(declare-fun x6 () Int)
(declare-fun x7 () Int)
(declare-fun x8 () Int)
(declare-fun x9 () Int)
(declare-fun A0 () Bool)
(declare-fun A1 () Bool)
(declare-fun A6 () Bool)
(declare-fun A7 () Bool)
(declare-fun A8 () Bool)
(declare-fun A9 () Bool)
(assert (let ((.def_0 (not A7))) (let ((.def_1 (* 1 x7))) (let ((.def_2 (< .def_1 1))) (let ((.def_3 (= .def_2 .def_0))) (let ((.def_4 (not .def_3))) (let ((.def_5 (* 1 x9))) (let ((.def_6 (* (- 1) x5))) (let ((.def_7 (+ .def_6 .def_5))) (let ((.def_8 (< .def_7 1))) (let ((.def_9 (= A8 .def_8))) (let ((.def_10 (or .def_9 .def_4))) (let ((.def_11 (not A0))) (let ((.def_12 (and A0 .def_11))) (let ((.def_13 (* (- 1) x7))) (let ((.def_14 (+ .def_13 .def_6))) (let ((.def_15 (< .def_14 1))) (let ((.def_16 (* (- 1) x9))) (let ((.def_17 (+ .def_1 .def_16))) (let ((.def_18 (< .def_17 1))) (let ((.def_19 (or .def_18 .def_15))) (let ((.def_20 (and .def_19 .def_12))) (let ((.def_21 (or .def_20 .def_10))) (let ((.def_22 (not .def_21))) (let ((.def_23 (* (- 1) x8))) (let ((.def_24 (+ .def_5 .def_23))) (let ((.def_25 (< .def_24 (- 1)))) (let ((.def_26 (or .def_25 .def_0))) (let ((.def_27 (+ .def_6 .def_16))) (let ((.def_28 (< .def_27 (- 1)))) (let ((.def_29 (or .def_0 .def_28))) (let ((.def_30 (not .def_29))) (let ((.def_31 (and .def_30 .def_26))) (let ((.def_32 (or A1 A6))) (let ((.def_33 (* (- 1) x1))) (let ((.def_34 (< .def_33 (- 1)))) (let ((.def_35 (not .def_34))) (let ((.def_36 (* (- 1) x6))) (let ((.def_37 (+ .def_36 .def_23))) (let ((.def_38 (< .def_37 (- 1)))) (let ((.def_39 (not .def_38))) (let ((.def_40 (or .def_39 .def_35))) (let ((.def_41 (or .def_40 .def_32))) (let ((.def_42 (not .def_41))) (let ((.def_43 (and .def_42 .def_31))) (let ((.def_44 (or .def_43 .def_22))) (let ((.def_45 (not .def_44))) (let ((.def_46 (* 1 x0))) (let ((.def_47 (< .def_46 (- 1)))) (let ((.def_48 (or .def_47 A7))) (let ((.def_49 (not .def_48))) (let ((.def_50 (or .def_0 A7))) (let ((.def_51 (and .def_50 .def_49))) (let ((.def_52 (not .def_51))) (let ((.def_53 (* 1 x2))) (let ((.def_54 (+ .def_13 .def_53))) (let ((.def_55 (< .def_54 (- 1)))) (let ((.def_56 (* 1 x4))) (let ((.def_57 (+ .def_33 .def_56))) (let ((.def_58 (< .def_57 1))) (let ((.def_59 (not .def_58))) (let ((.def_60 (and .def_59 .def_55))) (let ((.def_61 (not .def_60))) (let ((.def_62 (< .def_56 (- 1)))) (let ((.def_63 (or .def_62 A7))) (let ((.def_64 (not .def_63))) (let ((.def_65 (and .def_64 .def_61))) (let ((.def_66 (and .def_65 .def_52))) (let ((.def_67 (not .def_66))) (let ((.def_68 (or A1 A9))) (let ((.def_69 (< .def_13 1))) (let ((.def_70 (not A6))) (let ((.def_71 (and .def_70 .def_69))) (let ((.def_72 (not .def_71))) (let ((.def_73 (and .def_72 .def_68))) (let ((.def_74 (not .def_73))) (let ((.def_75 (< .def_6 (- 1)))) (let ((.def_76 (not .def_75))) (let ((.def_77 (+ .def_56 .def_53))) (let ((.def_78 (< .def_77 1))) (let ((.def_79 (not .def_78))) (let ((.def_80 (or .def_79 .def_76))) (let ((.def_81 (not .def_80))) (let ((.def_82 (< .def_33 1))) (let ((.def_83 (or A7 .def_82))) (let ((.def_84 (and .def_83 .def_81))) (let ((.def_85 (not .def_84))) (let ((.def_86 (or .def_85 .def_74))) (let ((.def_87 (not .def_86))) (let ((.def_88 (and .def_87 .def_67))) (let ((.def_89 (not .def_88))) (let ((.def_90 (and .def_89 .def_45))) (let ((.def_91 (not .def_90))) (let ((.def_92 (<= x9 1))) (let ((.def_93 (<= 0 x9))) (let ((.def_94 (<= x8 1))) (let ((.def_95 (<= 0 x8))) (let ((.def_96 (<= x7 1))) (let ((.def_97 (<= 0 x7))) (let ((.def_98 (<= x6 1))) (let ((.def_99 (<= 0 x6))) (let ((.def_100 (<= x5 1))) (let ((.def_101 (<= 0 x5))) (let ((.def_102 (<= x4 1))) (let ((.def_103 (<= 0 x4))) (let ((.def_104 (<= x3 1))) (let ((.def_105 (<= 0 x3))) (let ((.def_106 (<= x2 1))) (let ((.def_107 (<= 0 x2))) (let ((.def_108 (<= x1 1))) (let ((.def_109 (<= 0 x1))) (let ((.def_110 (<= x0 1))) (let ((.def_111 (<= 0 x0))) (let ((.def_112 (and .def_111 .def_110 .def_109 .def_108 .def_107 .def_106 .def_105 .def_104 .def_103 .def_102 .def_101 .def_100 .def_99 .def_98 .def_97 .def_96 .def_95 .def_94 .def_93 .def_92 .def_91))) .def_112))))))))))))))))))))))))))))))))))))))))))))))))))))))))))))))))))))))))))))))))))))))))))))))))))))))))))))))))))
(check-sat)
